3002 96577 95504 32420 63755 72957 51610 94051 30990 39271
17849 14940 15131 25527 73245 30466 32297 5112 808 7355
16364 44361 89405 57385 7128 25395 78777 56669 9965 68876
60276 76229 7913 40636 25428 7000 64047 88379 37309 83214
8530 87516 90229 95413 95954 61523 63905 91165 68946 33292
42913 40483 51155 7862 70153 5150 81998 78443 61581 21538
97041 29185 67114 98730 78489 6569 77666 58630 14397 20796
37517 17451 16710 18895 45951 72297 67110 16835 82317 86814
11572 36172 60794 6063 54343 64250 11763 75173 36239 22976
93097 83418 94437 52779 44661 97047 12880 32854 4899 50529
